150 577563012
150 135 74 92 28 147 115 143 93 51 33 12 25 36 123 142 82 94 46 4 20 26 124 81 64 67 35 41 29 104 68 136 58 130 37 133 110 21 14 128 88 34 57 129 70 22 76 13 55 118 85 1 9 73 97 49 100 72 53 10 75 101 87 138 113 27 19 106 18 47 39 114 78 66 112 96 40 125 109 62 132 105 60 15 69 11 5 77 99 127 117 71 140 116 59 23 6 91 98 54 44 79 126 148 65 145 144 50 38 89 3 30 134 102 31 2 149 107 61 24 84 95 80 111 146 83 45 7 16 120 86 119 137 141 90 42 139 108 122 63 121 8 131 52 103 32 48 17 56 43 
